82
24
0 24 25 26 27 32 34 36 37 39 41 42 43 45 48 49 50 52 55 56 58 59 61 62 63 64 67 68 72 73 78 79 80 81
1 24 25 26 27 32 33 34 37 39 41 43 45 46 50 51 52 53 55 58 64 68 69 70 73 74 78 80
2 24 25 27 32 33 34 35 37 39 41 45 46 48 51 55 56 58 59 61 62 64 66 69 71 74 77 78 80 81
3 25 27 32 33 35 37 41 42 45 46 48 50 55 58 59 61 62 63 64 65 68 69 70 71 72 73 74 77 78 80
4 24 26 27 28 34 35 36 37 38 40 41 45 46 50 52 54 55 58 59 60 62 63 64 66 67 68 70 71 72 73 74 77 80 81
5 24 26 27 30 32 34 35 37 39 40 42 44 45 50 54 56 58 59 61 62 67 72 73 79 80
6 24 25 26 27 28 32 33 34 37 38 39 46 48 50 55 56 61 66 70 71 73 76 77 78 79 80 81
7 24 26 30 33 36 37 38 39 40 42 44 45 48 49 50 51 56 59 61 62 64 65 67 70 71 73 78 80
8 24 25 26 27 29 32 34 35 38 39 41 45 46 49 50 55 58 59 61 63 64 70 71 72 78
9 24 25 27 32 35 37 38 40 41 42 46 48 49 55 56 59 61 63 66 69 71 73 74 77 78
10 24 26 28 30 31 32 35 38 39 40 42 48 49 51 54 55 56 61 64 65 67 69 70 73 74 78 79 80
11 25 27 32 35 36 38 39 41 46 48 50 54 55 58 61 64 65 66 79 81
12 24 26 32 35 36 40 46 47 48 54 55 56 58 61 62 65 69 70 72 74 77 78 80
13 24 25 26 27 28 30 34 37 39 48 49 52 54 56 58 61 63 65 73 74 77 79 80
14 28 30 34 35 37 39 40 41 42 45 47 51 67 69 77 78 80
15 24 26 33 34 36 38 41 42 50 51 56 58 63 65 66 67 70 73 74 77 80 81
16 30 33 37 41 48 51 54 55 61 63 65 69 71 72 73 74 76 78 79 80
17 24 27 37 44 45 51 58 61 64 77 78 81
18 31 39 44 45 60 63 65 67 76 79 80
19 26 28 30 33 34 36 40 45 46 56 68 70 71 75 77 81
20 29 37 42 51 59 64 67 69 70 78
21 27 30 31 32 50 59 60
22 32 44 57 64 72 78
23 41 56 60
